40
    89    11    49    41    88    19    85    67    83    61    82    46    76     1    45    56    97    55    57    76     7    92    79    90    93    34    49    84    68    58    84    48    78    90    79    75    94    14     7    60
    10     8     8     1     2     9     3     9    10     8     1     9     1     4     6     4     9     3     1     9     9     6     9     8     1    10     6     9     7     9     5     9     4     1     8     7    10     3     3     2
  1445  1249  2181  1877  1517  1516  1253  1762  2246  2550  1652  1729  1912  2530  1272  1847  1408  2483  1939  1595  2624  1437  2244  2031  1653  2654  1478  1312  1962  1388  1334  1298  1683  1477  2448  1596  2347  1610  1669  1726
